WARNING: for repeatability, setting FPU to use double precision
============================[ Problem Statistics ]=============================
|                                                                             |
|  Number of variables:          7383                                         |
|  Number of clauses:           24097                                         |
|  Parse time:                   0.01 s                                       |
|                                                                             |
c ============================[ Search Statistics ]==============================
c | Conflicts |          ORIGINAL         |          LEARNT          | Progress |
c |           |    Vars  Clauses Literals |    Limit  Clauses Lit/Cl |          |
c ===============================================================================
c Switched to VSIDS.
c Switched to LRB.
c Switched to VSIDS.
c Switched to LRB.
c ===============================================================================
restarts                  : 614
conflicts                 : 322708         (2101 /sec)
decisions                 : 491029         (0.00 % random) (3196 /sec)
propagations              : 151788157      (988003 /sec)
conflict literals         : 15404195       (63.82 % deleted)

conflicts w/ DIP found    : 222954         (69.09 % of conflicts)
conflicts w/ dangerous DIP: 0              (0.00 % of conflicts)
conflicts w/ DIP-learning : 125            (0.04 % of conflicts)
decisions on ext vars     : 2129           (0.43 % of decisions)
total ext vars            : 28          
tried delete ext vars     : 0           
deleted ext vars          : 0           
max ext vars              : 28          

Memory used               : 46.00 MB
CPU time                  : 153.631 s
DIP computation time      : 5.39166 s (3.51 % of total time)
ER_sel time               : 0.332203 s
ER_add time               : 0.000189 s
ER_delC time              : 0 s
ER_delV time              : 0 s
ER_sub time               : 0.468891 s
ER_stat time              : 0 s

SATISFIABLE
